32      3       
24      21      12      
0       0       0       0       3       2       3       4       
6       0       7       0       2       8       9       
8       0       0       6       2       14      20      
7       4       10      0       3       5       14      26      
1       10      0       1       2       6       19      
6       5       0       0       3       7       10      11      
3       7       0       0       1       12      
8       8       5       0       2       21      29      
2       0       3       0       2       18      19      
9       0       5       0       1       15      
5       0       3       4       1       24      
6       5       0       5       3       13      16      22      
1       0       1       0       1       24      
9       9       0       0       1       24      
7       0       10      0       2       17      28      
6       5       3       0       1       23      
6       3       4       0       1       20      
10      10      9       0       2       22      27      
9       5       5       10      2       22      27      
5       7       0       4       1       23      
2       6       9       0       1       28      
1       0       5       0       1       28      
4       0       10      0       2       25      31      
1       1       0       0       1       29      
3       0       3       1       1       30      
2       0       8       0       1       31      
6       8       0       0       1       29      
10      1       0       0       1       30      
4       9       0       0       1       32      
5       6       3       3       1       32      
8       7       7       0       1       32      
0       0       0       0       0       